GLPSOL: GLPK LP/MIP Solver, v4.65
Parameter(s) specified in the command line:
 --model solver_drone.mod --data solver_drone_data_10.dat --output solver_drone_solution_10_4.log
 --log solver_drone_cmd_output_10_4.log --tmlim 25
Reading model section from solver_drone.mod...
41 lines were read
Reading data section from solver_drone_data_10.dat...
37 lines were read
Generating f...
Generating package_deliverd_once...
Generating package_well_delivered...
Generating time_spent_flying...
Generating autonomy_not_exceeded...
Generating check_time_max...
Model has been successfully generated
GLPK Integer Optimizer, v4.65
699 rows, 665 columns, 2053 non-zeros
665 integer variables, 660 of which are binary
Preprocessing...
38 rows, 665 columns, 1392 non-zeros
665 integer variables, 660 of which are binary
Scaling...
 A: min|aij| =  1.000e+00  max|aij| =  3.088e+03  ratio =  3.088e+03
GM: min|aij| =  5.550e-01  max|aij| =  1.802e+00  ratio =  3.246e+00
EQ: min|aij| =  3.081e-01  max|aij| =  1.000e+00  ratio =  3.246e+00
2N: min|aij| =  2.500e-01  max|aij| =  1.031e+00  ratio =  4.125e+00
Constructing initial basis...
Size of triangular part is 38
Solving LP relaxation...
GLPK Simplex Optimizer, v4.65
38 rows, 665 columns, 1392 non-zeros
      0: obj =   0.000000000e+00 inf =   7.048e+02 (1)
     37: obj =   5.638000000e+03 inf =   2.288e-14 (0)
*    50: obj =   5.638000000e+03 inf =   2.288e-14 (0)
OPTIMAL LP SOLUTION FOUND
Integer optimization begins...
Long-step dual simplex will be used
+    50: mip =     not found yet >=              -inf        (1; 0)
+   130: >>>>>   5.712000000e+03 >=   5.638000000e+03   1.3% (24; 0)
+   800: >>>>>   5.704000000e+03 >=   5.638000000e+03   1.2% (104; 69)
+ 51026: mip =   5.704000000e+03 >=   5.638000000e+03   1.2% (4058; 6707)
+ 61290: >>>>>   5.696000000e+03 >=   5.638000000e+03   1.0% (4463; 8661)
+101828: mip =   5.696000000e+03 >=   5.638000000e+03   1.0% (6469; 16362)
+137925: mip =   5.696000000e+03 >=   5.638000000e+03   1.0% (8685; 22061)
+169774: mip =   5.696000000e+03 >=   5.638000000e+03   1.0% (10596; 27180)
+191942: mip =   5.696000000e+03 >=   5.638000000e+03   1.0% (11758; 30795)
TIME LIMIT EXCEEDED; SEARCH TERMINATED
Time used:   25.0 secs
Memory used: 20.2 Mb (21164426 bytes)
The package 1 is delivered by the drone 2 to the house 1
The package 2 is delivered by the drone 2 to the house 1
The package 3 is delivered by the drone 2 to the house 1
The package 4 is delivered by the drone 3 to the house 2
The package 5 is delivered by the drone 1 to the house 2
The package 6 is delivered by the drone 3 to the house 2
The package 7 is delivered by the drone 2 to the house 3
The package 8 is delivered by the drone 3 to the house 4
The package 9 is delivered by the drone 1 to the house 6
The package 10 is delivered by the drone 3 to the house 7
The package 11 is delivered by the drone 4 to the house 8
The package 12 is delivered by the drone 4 to the house 8
The package 13 is delivered by the drone 4 to the house 9
The package 14 is delivered by the drone 1 to the house 10
The package 15 is delivered by the drone 4 to the house 10
Model has been successfully processed
Writing MIP solution to 'solver_drone_solution_10_4.log'...
